50
     4    34    92    66    30     2     1    76    56    80    62    45     7    68    55    91    46    30    53    50    79    96    18    72    51    64     4    24    48    95    54    89    96    16     4    63    64    21    77    61    58    67    90    11    27    81    49    58    61    50
     7     8    10     9     8     1     1     2    10     1     4     6     8     9     2     7    10    10     5     2     4     4    10     7     4     5     1     6     2     4     9     6     5     2     3     1     2    10     8     7     2     9     7     6     8     9    10     5     6     1
  2077  2013  2139  2012  2276  1863  1979  1981  2247  2029  2333  2325  2238  2041  2055  2176  1944  1908  2136  1978  2075  2164  2234  1849  2044  2105  2104  2279  2054  1906  2270  1976  1818  1894  1836  2189  2133  2082  2257  1964  2044  1955  2049  1949  1967  2074  2110  2240  1897  2307
